2696 2695
2696 2697
2702 2703
2703 2704
2704 2705
2793 2794
2794 2795
2806 2805
2807 2806
2990 2991
2991 2992
3009 3008
3010 3009
3011 3010
3016 3017
3018 3017
3087 3086
3088 3087
3089 3088
3112 3113
3113 3114
3115 3114
3115 3116
3173 3174
3174 3175
3176 3177
3177 3178
3181 3182
3185 3186
3248 3247
3249 3248
3270 3269
3271 3270
3272 3271
3279 3278
3280 3279
3283 3282
3284 3283
3320 3321
3322 3321
3322 3323
3336 3337
3337 3338
3338 3339
3339 3340
3344 3345
3345 3346
3346 3347
3353 3354
3354 3355
3431 3430
3432 3431
3433 3432
3434 3433
3441 3440
3442 3441
3443 3442
3451 3450
3452 3451
3456 3455
3457 3456
3458 3457
3459 3458
3466 3465
3467 3466
3468 3467
3525 3526
3526 3527
3527 3528
3528 3529
3529 3530
3560 3561
3561 3562
3562 3563
3664 3663
